\ Model Hospital NetwORk
\ LP format - for model browsing. Use MPS format to capture full model detail.
Minimize
  300 x_0_0 + 300 x_0_1 + 300 x_0_2 + 300 x_0_3 + 300 x_0_4 + 50 x_1_0
   + 50 x_1_1 + 50 x_1_2 + 50 x_1_3 + 50 x_1_4 + 50 x_1_6 + 300 x_2_2
   + 300 x_2_3 + 300 x_2_4 + 480 x_3_1 + 480 x_3_5 + 480 x_3_6 + 480 x_3_7
   + 400 x_4_0 + 400 x_4_1 + 400 x_4_2 + 400 x_4_3 + 400 x_4_4 + 400 x_4_5
   + 400 x_4_6
Subject To
 R0: x_0_0 + x_1_0 + x_4_0 = 1
 R1: x_0_1 + x_1_1 + x_3_1 + x_4_1 = 1
 R2: x_0_2 + x_1_2 + x_2_2 + x_4_2 = 1
 R3: x_0_3 + x_1_3 + x_2_3 + x_4_3 = 1
 R4: x_0_4 + x_1_4 + x_2_4 + x_4_4 = 1
 R5: x_3_5 + x_4_5 = 1
 R6: x_1_6 + x_3_6 + x_4_6 = 1
 R7: x_3_7 = 1
 R8: 7.071067811865476 x_0_0 - 20 a_0_0 - 20 a_0_1 <= 0
 R9: 25 x_0_1 - 20 a_0_0 - 20 a_0_1 <= 0
 R10: 11.18033988749895 x_0_2 - 20 a_0_0 - 20 a_0_1 <= 0
 R11: 11.18033988749895 x_0_3 - 20 a_0_0 - 20 a_0_1 <= 0
 R12: 15.8113883008419 x_0_4 - 20 a_0_0 - 20 a_0_1 <= 0
 R13: 7.071067811865476 x_1_0 - 20 a_1_0 - 20 a_1_1 <= 0
 R14: 15 x_1_1 - 20 a_1_0 - 20 a_1_1 <= 0
 R15: 5 x_1_2 - 20 a_1_0 - 20 a_1_1 <= 0
 R16: 11.18033988749895 x_1_3 - 20 a_1_0 - 20 a_1_1 <= 0
 R17: 15.8113883008419 x_1_4 - 20 a_1_0 - 20 a_1_1 <= 0
 R18: 28.2842712474619 x_1_6 - 20 a_1_0 - 20 a_1_1 <= 0
 R19: 26.92582403567252 x_2_2 - 20 a_2_0 - 20 a_2_1 <= 0
 R20: 20.6155281280883 x_2_3 - 20 a_2_0 - 20 a_2_1 <= 0
 R21: 15.8113883008419 x_2_4 - 20 a_2_0 - 20 a_2_1 <= 0
 R22: 15 x_3_1 - 20 a_3_0 - 20 a_3_1 <= 0
 R23: 10 x_3_5 - 20 a_3_0 - 20 a_3_1 <= 0
 R24: 22.3606797749979 x_3_6 - 20 a_3_0 - 20 a_3_1 <= 0
 R25: 25 x_3_7 - 20 a_3_0 - 20 a_3_1 <= 0
 R26: 21.21320343559643 x_4_0 - 20 a_4_0 - 20 a_4_1 <= 0
 R27: 11.18033988749895 x_4_1 - 20 a_4_0 - 20 a_4_1 <= 0
 R28: 11.18033988749895 x_4_2 - 20 a_4_0 - 20 a_4_1 <= 0
 R29: 15 x_4_3 - 20 a_4_0 - 20 a_4_1 <= 0
 R30: 15.8113883008419 x_4_4 - 20 a_4_0 - 20 a_4_1 <= 0
 R31: 20 x_4_5 - 20 a_4_0 - 20 a_4_1 <= 0
 R32: 14.14213562373095 x_4_6 - 20 a_4_0 - 20 a_4_1 <= 0
 R33: 7.071067811865476 x_0_0 - 30 a_0_2 <= 0
 R34: 25 x_0_1 - 30 a_0_2 <= 0
 R35: 11.18033988749895 x_0_2 - 30 a_0_2 <= 0
 R36: 11.18033988749895 x_0_3 - 30 a_0_2 <= 0
 R37: 15.8113883008419 x_0_4 - 30 a_0_2 <= 0
 R38: 7.071067811865476 x_1_0 - 30 a_1_2 <= 0
 R39: 15 x_1_1 - 30 a_1_2 <= 0
 R40: 5 x_1_2 - 30 a_1_2 <= 0
 R41: 11.18033988749895 x_1_3 - 30 a_1_2 <= 0
 R42: 15.8113883008419 x_1_4 - 30 a_1_2 <= 0
 R43: 28.2842712474619 x_1_6 - 30 a_1_2 <= 0
 R44: 26.92582403567252 x_2_2 - 30 a_2_2 <= 0
 R45: 20.6155281280883 x_2_3 - 30 a_2_2 <= 0
 R46: 15.8113883008419 x_2_4 - 30 a_2_2 <= 0
 R47: 15 x_3_1 - 30 a_3_2 <= 0
 R48: 10 x_3_5 - 30 a_3_2 <= 0
 R49: 22.3606797749979 x_3_6 - 30 a_3_2 <= 0
 R50: 25 x_3_7 - 30 a_3_2 <= 0
 R51: 21.21320343559643 x_4_0 - 30 a_4_2 <= 0
 R52: 11.18033988749895 x_4_1 - 30 a_4_2 <= 0
 R53: 11.18033988749895 x_4_2 - 30 a_4_2 <= 0
 R54: 15 x_4_3 - 30 a_4_2 <= 0
 R55: 15.8113883008419 x_4_4 - 30 a_4_2 <= 0
 R56: 20 x_4_5 - 30 a_4_2 <= 0
 R57: 14.14213562373095 x_4_6 - 30 a_4_2 <= 0
 R58: x_0_0 + x_0_1 + x_0_2 + x_0_3 + x_0_4 - a_0_0 - 2 a_0_1 - 3 a_0_2
   <= 0
 R59: x_1_0 + x_1_1 + x_1_2 + x_1_3 + x_1_4 + x_1_6 - a_1_0 - 3 a_1_1
   - 4 a_1_2 <= 0
 R60: x_2_2 + x_2_3 + x_2_4 - a_2_0 - 2 a_2_1 - 3 a_2_2 <= 0
 R61: x_3_1 + x_3_5 + x_3_6 + x_3_7 - 2 a_3_0 - 2 a_3_1 - 3 a_3_2 <= 0
 R62: x_4_0 + x_4_1 + x_4_2 + x_4_3 + x_4_4 + x_4_5 + x_4_6 - a_4_0
   - 2 a_4_1 - 3 a_4_2 <= 0
 R63: x_0_0 - a_0_1 - a_0_2 = 0
 R64: x_0_2 - a_0_1 - a_0_2 = 0
 R65: x_1_0 - a_1_1 - a_1_2 = 0
 R66: x_1_2 - a_1_1 - a_1_2 = 0
 R67: x_2_2 - a_2_1 - a_2_2 = 0
 R68: x_3_5 - a_3_1 - a_3_2 = 0
 R69: x_4_0 - a_4_1 - a_4_2 = 0
 R70: x_4_2 - a_4_1 - a_4_2 = 0
 R71: x_4_5 - a_4_1 - a_4_2 = 0
 R72: a_0_0 + a_0_1 + a_0_2 <= 1
 R73: a_1_0 + a_1_1 + a_1_2 <= 1
 R74: a_2_0 + a_2_1 + a_2_2 <= 1
 R75: a_3_0 + a_3_1 + a_3_2 <= 1
 R76: a_4_0 + a_4_1 + a_4_2 <= 1
Bounds
Binaries
 x_0_0 x_0_1 x_0_2 x_0_3 x_0_4 x_1_0 x_1_1 x_1_2 x_1_3 x_1_4 x_1_6 x_2_2
 x_2_3 x_2_4 x_3_1 x_3_5 x_3_6 x_3_7 x_4_0 x_4_1 x_4_2 x_4_3 x_4_4 x_4_5
 x_4_6 a_0_0 a_0_1 a_0_2 a_1_0 a_1_1 a_1_2 a_2_0 a_2_1 a_2_2 a_3_0 a_3_1
 a_3_2 a_4_0 a_4_1 a_4_2
End
